14 22
6 8
14 22
0 9
10 23
13 13
2 25
3 3
0 14
14 30
13 12
2 5
4 11
8 1
8 23
6 4
11 1
10 30
1 13
4 15
0 24
12 2
13 26
15 29
9 12
7 21
9 6
11 27
12 22
13 19
13 21
4 24
10 14
4 19